NAME          DCAP_3_4_2_500_SS48
ROWS
 N  OBJ
 L  CON1
 L  CON2
 L  CON3
 L  CON4
 L  CON5
 L  CON6
 L  CON7
 L  CON8
 L  CON9
 L  CON10
 L  CON11
 L  CON12
 E  CON13
 E  CON14
 E  CON15
 E  CON16
 E  CON17
 E  CON18
 E  CON19
 E  CON20
COLUMNS
    x[1,1]    OBJ       6.180167      CON1      1.000000    
    x[1,1]    CON7      -1.000000     CON8      -1.000000   
    x[1,2]    OBJ       5.039546      CON2      1.000000    
    x[1,2]    CON8      -1.000000   
    x[2,1]    OBJ       6.732585      CON3      1.000000    
    x[2,1]    CON9      -1.000000     CON10     -1.000000   
    x[2,2]    OBJ       7.443064      CON4      1.000000    
    x[2,2]    CON10     -1.000000   
    x[3,1]    OBJ       6.563535      CON5      1.000000    
    x[3,1]    CON11     -1.000000     CON12     -1.000000   
    x[3,2]    OBJ       6.054841      CON6      1.000000    
    x[3,2]    CON12     -1.000000   
    MARKER    'MARKER'                'INTORG'
    u[1,1]    OBJ       48.076654     CON1      -1.000000   
    u[1,2]    OBJ       49.466655     CON2      -1.000000   
    u[2,1]    OBJ       49.996186     CON3      -1.000000   
    u[2,2]    OBJ       32.230043     CON4      -1.000000   
    u[3,1]    OBJ       20.066487     CON5      -1.000000   
    u[3,2]    OBJ       27.484319     CON6      -1.000000   
    y[1,1,1]  OBJ       5.700062      CON7      0.946821    
    y[1,1,1]  CON13     1.000000    
    y[1,1,2]  OBJ       6.792220      CON8      0.557160    
    y[1,1,2]  CON14     1.000000    
    y[1,2,1]  OBJ       6.924459      CON7      1.125117    
    y[1,2,1]  CON15     1.000000    
    y[1,2,2]  OBJ       9.287708      CON8      0.505680    
    y[1,2,2]  CON16     1.000000    
    y[1,3,1]  OBJ       6.647313      CON7      1.108765    
    y[1,3,1]  CON17     1.000000    
    y[1,3,2]  OBJ       9.040068      CON8      1.483235    
    y[1,3,2]  CON18     1.000000    
    y[1,4,1]  OBJ       6.181160      CON7      1.313922    
    y[1,4,1]  CON19     1.000000    
    y[1,4,2]  OBJ       6.821307      CON8      1.466257    
    y[1,4,2]  CON20     1.000000    
    y[2,1,1]  OBJ       5.058275      CON9      0.946821    
    y[2,1,1]  CON13     1.000000    
    y[2,1,2]  OBJ       5.553990      CON10     0.557160    
    y[2,1,2]  CON14     1.000000    
    y[2,2,1]  OBJ       9.920990      CON9      1.125117    
    y[2,2,1]  CON15     1.000000    
    y[2,2,2]  OBJ       9.891842      CON10     0.505680    
    y[2,2,2]  CON16     1.000000    
    y[2,3,1]  OBJ       7.175209      CON9      1.108765    
    y[2,3,1]  CON17     1.000000    
    y[2,3,2]  OBJ       5.280648      CON10     1.483235    
    y[2,3,2]  CON18     1.000000    
    y[2,4,1]  OBJ       8.063471      CON9      1.313922    
    y[2,4,1]  CON19     1.000000    
    y[2,4,2]  OBJ       9.964758      CON10     1.466257    
    y[2,4,2]  CON20     1.000000    
    y[3,1,1]  OBJ       9.883161      CON11     0.946821    
    y[3,1,1]  CON13     1.000000    
    y[3,1,2]  OBJ       8.901418      CON12     0.557160    
    y[3,1,2]  CON14     1.000000    
    y[3,2,1]  OBJ       6.016808      CON11     1.125117    
    y[3,2,1]  CON15     1.000000    
    y[3,2,2]  OBJ       9.060075      CON12     0.505680    
    y[3,2,2]  CON16     1.000000    
    y[3,3,1]  OBJ       6.110221      CON11     1.108765    
    y[3,3,1]  CON17     1.000000    
    y[3,3,2]  OBJ       5.569399      CON12     1.483235    
    y[3,3,2]  CON18     1.000000    
    y[3,4,1]  OBJ       9.006186      CON11     1.313922    
    y[3,4,1]  CON19     1.000000    
    y[3,4,2]  OBJ       6.078666      CON12     1.466257    
    y[3,4,2]  CON20     1.000000    
    z[1,1]    OBJ       747.785791    CON13     1.000000    
    z[1,2]    OBJ       538.847226    CON14     1.000000    
    z[2,1]    OBJ       691.402597    CON15     1.000000    
    z[2,2]    OBJ       851.091036    CON16     1.000000    
    z[3,1]    OBJ       520.840984    CON17     1.000000    
    z[3,2]    OBJ       630.778833    CON18     1.000000    
    z[4,1]    OBJ       641.883136    CON19     1.000000    
    z[4,2]    OBJ       831.382374    CON20     1.000000    
    MARKER    'MARKER'                 'INTEND'
RHS
    RHS       CON1      -0.000000     CON2      -0.000000   
    RHS       CON3      -0.000000     CON4      -0.000000   
    RHS       CON5      -0.000000     CON6      -0.000000   
    RHS       CON7      -0.000000     CON8      -0.000000   
    RHS       CON9      -0.000000     CON10     -0.000000   
    RHS       CON11     -0.000000     CON12     -0.000000   
    RHS       CON13     1.000000      CON14     1.000000    
    RHS       CON15     1.000000      CON16     1.000000    
    RHS       CON17     1.000000      CON18     1.000000    
    RHS       CON19     1.000000      CON20     1.000000    
BOUNDS
 BV BOUND     u[1,1]  
 BV BOUND     u[1,2]  
 BV BOUND     u[2,1]  
 BV BOUND     u[2,2]  
 BV BOUND     u[3,1]  
 BV BOUND     u[3,2]  
 BV BOUND     y[1,1,1]
 BV BOUND     y[1,1,2]
 BV BOUND     y[1,2,1]
 BV BOUND     y[1,2,2]
 BV BOUND     y[1,3,1]
 BV BOUND     y[1,3,2]
 BV BOUND     y[1,4,1]
 BV BOUND     y[1,4,2]
 BV BOUND     y[2,1,1]
 BV BOUND     y[2,1,2]
 BV BOUND     y[2,2,1]
 BV BOUND     y[2,2,2]
 BV BOUND     y[2,3,1]
 BV BOUND     y[2,3,2]
 BV BOUND     y[2,4,1]
 BV BOUND     y[2,4,2]
 BV BOUND     y[3,1,1]
 BV BOUND     y[3,1,2]
 BV BOUND     y[3,2,1]
 BV BOUND     y[3,2,2]
 BV BOUND     y[3,3,1]
 BV BOUND     y[3,3,2]
 BV BOUND     y[3,4,1]
 BV BOUND     y[3,4,2]
 BV BOUND     z[1,1]  
 BV BOUND     z[1,2]  
 BV BOUND     z[2,1]  
 BV BOUND     z[2,2]  
 BV BOUND     z[3,1]  
 BV BOUND     z[3,2]  
 BV BOUND     z[4,1]  
 BV BOUND     z[4,2]  
ENDATA
